c read Graph
c width = 35
c time = 516 ms
c width = 7
c time = 620 ms
c width = 6
c time = 1187 ms
c width = 6
c time = 4180 ms
s td 42 7 48
b 1 1 2 9
b 2 2 3 9 10
b 3 6 7 15 16
b 4 3 9 10 17
b 5 6 15 16 24
b 6 25 33 34 42
b 7 32 39 40 47
b 8 25 34 42 43
b 9 32 39 46 47
b 10 3 4 5 12
b 11 3 5 12 19 25 26
b 12 3 12 18 19 25 26
b 13 3 11 12 18 19 25
b 14 3 11 17 18 25
b 15 3 10 11 17 18
b 16 5 12 19 25 26 35 44
b 17 5 12 19 26 28 35 44
b 18 5 12 19 21 28 35 44
b 19 5 12 14 21 28 35 44
b 20 5 14 21 28 35 37 44
b 21 5 14 21 28 30 37 44
b 22 5 14 21 23 30 37 44
b 23 5 14 23 30 32 37 44
b 24 5 14 23 24 32
b 25 5 6 14 23 24
b 26 6 14 15 23 24
b 27 5 12 13 14 21
b 28 14 21 22 23 30
b 29 23 30 32 37 44 46
b 30 23 30 32 37 38 46
b 31 23 30 31 32 38 46
b 32 31 32 38 39 46
b 33 37 44 45 46
b 34 21 28 29 30 37
b 35 12 19 20 21 28
b 36 28 35 36 37 44
b 37 19 26 27 28 35
b 38 25 26 35 43 44
b 39 25 26 34 35 43
b 40 40 47 48
b 41 33 41 42
b 42 7 8 16
1 2
2 4
3 42
3 5
4 15
5 26
6 41
6 8
7 40
7 9
8 39
9 32
10 11
11 16
11 12
12 13
13 14
14 15
16 38
16 17
17 37
17 18
18 35
18 19
19 27
19 20
20 36
20 21
21 34
21 22
22 28
22 23
23 29
23 24
24 25
25 26
29 33
29 30
30 31
31 32
38 39
